20 4
12 40 62 88 39 68 32 41 77 98 81 11 48 61 63 89 62 37 52 19
74 81 21 32 15 35 70 70 66 70 63 19 93 92 55 33 24 18 70 78
13 65 97 79 37 61 83 20 64 67 54 21 75 100 62 62 84 41 94 90
55 20 51 23 92 17 24 99 96 21 17 68 53 50 82 44 34 80 23 57
